(set-logic QF_NRA)
(set-info :source |Benchmarks generated from hycomp (https://es-static.fbk.eu/tools/hycomp/). BMC instances of non-linear hybrid automata taken from: Alessandro Cimatti, Sergio Mover, Stefano Tonetta, A quantifier-free SMT encoding of non-linear hybrid automata, FMCAD 2012 and Alessandro Cimatti, Sergio Mover, Stefano Tonetta, Quantier-free encoding of invariants for Hybrid Systems, Formal Methods in System Design. This instance solves a BMC problem of depth 1 and uses the quantifier free encoding with lemmas encoding. Contacts: Sergio Mover (mover@fbk.eu), Stefano Tonetta (tonettas@fbk.eu), Alessandro Cimatti (cimatti@fbk.eu).|)
(set-info :smt-lib-version 2.0)
(set-info :category "industrial")
(set-info :status unsat)
;; MathSAT API call trace
;; generated on Mon Mar 19 10:38:51 2012
(declare-fun b.y__AT1 () Real)
(declare-fun b.x__AT0 () Real)
(declare-fun b.speed_y__AT0 () Real)
(declare-fun b.event_is_timed__AT0 () Bool)
(declare-fun b.speed_x__AT0 () Real)
(declare-fun b.event_is_timed__AT1 () Bool)
(declare-fun b.time__AT0 () Real)
(declare-fun b.speed_y__AT1 () Real)
(declare-fun b.y__AT0 () Real)
(declare-fun b.counter.0__AT0 () Bool)
(declare-fun b.counter.1__AT0 () Bool)
(declare-fun b.time__AT1 () Real)
(declare-fun b.bool_atom__AT0 () Bool)
(declare-fun b.counter.2__AT0 () Bool)
(declare-fun b.delta__AT1 () Real)
(declare-fun b.EVENT.0__AT1 () Bool)
(declare-fun b.delta__AT0 () Real)
(declare-fun b.speed_x__AT1 () Real)
(declare-fun b.EVENT.0__AT0 () Bool)
(declare-fun b.x__AT1 () Real)
(declare-fun b.counter.0__AT1 () Bool)
(declare-fun b.EVENT.1__AT0 () Bool)
(declare-fun b.counter.1__AT1 () Bool)
(declare-fun b.counter.2__AT1 () Bool)
(declare-fun b.counter.3__AT1 () Bool)
(declare-fun b.bool_atom__AT1 () Bool)
(declare-fun b.EVENT.1__AT1 () Bool)
(declare-fun b.speed_loss__AT0 () Real)
(declare-fun b.counter.3__AT0 () Bool)
(assert (let ((.def_398 (* (- 1.0) b.speed_x__AT1)))
(let ((.def_399 (* b.speed_x__AT1 .def_398)))
(let ((.def_400 (* (- 1.0) .def_399)))
(let ((.def_428 (* 2.0 .def_400)))
(let ((.def_486 (* (- 1.0) .def_428)))
(let ((.def_487 (* b.delta__AT1 .def_486)))
(let ((.def_488 (* (- 5.0) .def_487)))
(let ((.def_341 (* (- 1.0) b.x__AT1)))
(let ((.def_411 (* b.speed_x__AT1 .def_341)))
(let ((.def_433 (* (- 5.0) .def_411)))
(let ((.def_493 (+ .def_433 .def_488)))
(let ((.def_406 (* b.x__AT1 .def_398)))
(let ((.def_431 (* (- 5.0) .def_406)))
(let ((.def_494 (+ .def_431 .def_493)))
(let ((.def_435 (* (- 49.0) b.delta__AT1)))
(let ((.def_495 (+ .def_435 .def_494)))
(let ((.def_437 (* 5.0 b.speed_y__AT1)))
(let ((.def_496 (+ .def_437 .def_495)))
(let ((.def_499 (<= 0.0 .def_496)))
(let ((.def_506 (not .def_499)))
(let ((.def_412 (* (- 1.0) .def_411)))
(let ((.def_407 (* (- 1.0) .def_406)))
(let ((.def_445 (+ .def_407 .def_412)))
(let ((.def_446 (+ b.speed_y__AT1 .def_445)))
(let ((.def_447 (<= 0.0 .def_446)))
(let ((.def_507 (or .def_447 .def_506)))
(let ((.def_497 (<= .def_496 0.0 )))
(let ((.def_461 (<= .def_446 0.0 )))
(let ((.def_462 (not .def_461)))
(let ((.def_505 (or .def_462 .def_497)))
(let ((.def_508 (and .def_505 .def_507)))
(let ((.def_477 (<= .def_399 (- (/ 49 10)))))
(let ((.def_509 (or .def_477 .def_508)))
(let ((.def_501 (not .def_497)))
(let ((.def_502 (or .def_461 .def_501)))
(let ((.def_448 (not .def_447)))
(let ((.def_500 (or .def_448 .def_499)))
(let ((.def_503 (and .def_500 .def_502)))
(let ((.def_482 (<= (- (/ 49 10)) .def_399)))
(let ((.def_504 (or .def_482 .def_503)))
(let ((.def_510 (and .def_504 .def_509)))
(let ((.def_498 (and .def_461 .def_497)))
(let ((.def_511 (and .def_498 .def_510)))
(let ((.def_429 (* b.delta__AT1 .def_428)))
(let ((.def_430 (* 5.0 .def_429)))
(let ((.def_439 (+ .def_433 .def_430)))
(let ((.def_440 (+ .def_431 .def_439)))
(let ((.def_441 (+ .def_435 .def_440)))
(let ((.def_442 (+ .def_437 .def_441)))
(let ((.def_459 (<= .def_442 0.0 )))
(let ((.def_460 (not .def_459)))
(let ((.def_480 (or .def_460 .def_461)))
(let ((.def_443 (<= 0.0 .def_442)))
(let ((.def_479 (or .def_443 .def_448)))
(let ((.def_481 (and .def_479 .def_480)))
(let ((.def_483 (or .def_481 .def_482)))
(let ((.def_444 (not .def_443)))
(let ((.def_475 (or .def_444 .def_447)))
(let ((.def_474 (or .def_459 .def_462)))
(let ((.def_476 (and .def_474 .def_475)))
(let ((.def_478 (or .def_476 .def_477)))
(let ((.def_484 (and .def_478 .def_483)))
(let ((.def_473 (and .def_443 .def_447)))
(let ((.def_485 (and .def_473 .def_484)))
(let ((.def_512 (or .def_485 .def_511)))
(let ((.def_413 (* b.delta__AT1 .def_412)))
(let ((.def_414 (* 10.0 .def_413)))
(let ((.def_408 (* b.delta__AT1 .def_407)))
(let ((.def_409 (* 10.0 .def_408)))
(let ((.def_420 (+ .def_409 .def_414)))
(let ((.def_397 (* b.delta__AT1 b.delta__AT1)))
(let ((.def_401 (* .def_397 .def_400)))
(let ((.def_402 (* 10.0 .def_401)))
(let ((.def_421 (+ .def_402 .def_420)))
(let ((.def_404 (* (- 49.0) .def_397)))
(let ((.def_422 (+ .def_404 .def_421)))
(let ((.def_395 (* b.speed_y__AT1 b.delta__AT1)))
(let ((.def_396 (* 10.0 .def_395)))
(let ((.def_423 (+ .def_396 .def_422)))
(let ((.def_387 (* b.x__AT1 .def_341)))
(let ((.def_416 (* (- 10.0) .def_387)))
(let ((.def_424 (+ .def_416 .def_423)))
(let ((.def_418 (* 10.0 b.y__AT1)))
(let ((.def_425 (+ .def_418 .def_424)))
(let ((.def_453 (<= .def_425 0.0 )))
(let ((.def_467 (not .def_453)))
(let ((.def_451 (<= b.y__AT1 .def_387)))
(let ((.def_468 (or .def_451 .def_467)))
(let ((.def_388 (<= .def_387 b.y__AT1)))
(let ((.def_465 (not .def_388)))
(let ((.def_426 (<= 0.0 .def_425)))
(let ((.def_466 (or .def_426 .def_465)))
(let ((.def_469 (and .def_466 .def_468)))
(let ((.def_463 (or .def_460 .def_462)))
(let ((.def_464 (not .def_463)))
(let ((.def_470 (or .def_464 .def_469)))
(let ((.def_455 (not .def_426)))
(let ((.def_456 (or .def_388 .def_455)))
(let ((.def_452 (not .def_451)))
(let ((.def_454 (or .def_452 .def_453)))
(let ((.def_457 (and .def_454 .def_456)))
(let ((.def_449 (or .def_444 .def_448)))
(let ((.def_450 (not .def_449)))
(let ((.def_458 (or .def_450 .def_457)))
(let ((.def_471 (and .def_458 .def_470)))
(let ((.def_427 (and .def_388 .def_426)))
(let ((.def_472 (and .def_427 .def_471)))
(let ((.def_513 (and .def_472 .def_512)))
(let ((.def_68 (<= b.speed_loss__AT0 (/ 1 2))))
(let ((.def_65 (<= (/ 1 10) b.speed_loss__AT0)))
(let ((.def_69 (and .def_65 .def_68)))
(let ((.def_514 (and .def_69 .def_513)))
(let ((.def_389 (and .def_69 .def_388)))
(let ((.def_384 (not b.EVENT.0__AT1)))
(let ((.def_382 (not b.EVENT.1__AT1)))
(let ((.def_385 (or .def_382 .def_384)))
(let ((.def_6 (not b.counter.0__AT1)))
(let ((.def_4 (not b.counter.1__AT1)))
(let ((.def_375 (or .def_4 .def_6)))
(let ((.def_379 (or b.counter.3__AT1 .def_375)))
(let ((.def_376 (or b.counter.2__AT1 .def_375)))
(let ((.def_9 (not b.counter.2__AT1)))
(let ((.def_374 (or .def_6 .def_9)))
(let ((.def_377 (and .def_374 .def_376)))
(let ((.def_12 (not b.counter.3__AT1)))
(let ((.def_378 (or .def_12 .def_377)))
(let ((.def_380 (and .def_378 .def_379)))
(let ((.def_386 (and .def_380 .def_385)))
(let ((.def_390 (and .def_386 .def_389)))
(let ((.def_369 (<= 0.0 b.delta__AT0)))
(let ((.def_56 (not b.EVENT.0__AT0)))
(let ((.def_54 (not b.EVENT.1__AT0)))
(let ((.def_203 (and .def_54 .def_56)))
(let ((.def_205 (not .def_203)))
(let ((.def_370 (or .def_205 .def_369)))
(let ((.def_371 (or b.EVENT.1__AT0 .def_370)))
(let ((.def_244 (= b.bool_atom__AT0 b.bool_atom__AT1)))
(let ((.def_239 (= b.counter.0__AT1 b.counter.0__AT0)))
(let ((.def_237 (= b.counter.1__AT1 b.counter.1__AT0)))
(let ((.def_235 (= b.counter.2__AT1 b.counter.2__AT0)))
(let ((.def_234 (= b.counter.3__AT1 b.counter.3__AT0)))
(let ((.def_236 (and .def_234 .def_235)))
(let ((.def_238 (and .def_236 .def_237)))
(let ((.def_240 (and .def_238 .def_239)))
(let ((.def_365 (and .def_240 .def_244)))
(let ((.def_366 (or .def_205 .def_365)))
(let ((.def_367 (or b.EVENT.1__AT0 .def_366)))
(let ((.def_354 (* (- 10.0) b.y__AT1)))
(let ((.def_77 (* b.delta__AT0 b.delta__AT0)))
(let ((.def_86 (* (- 49.0) .def_77)))
(let ((.def_357 (+ .def_86 .def_354)))
(let ((.def_75 (* b.speed_y__AT0 b.delta__AT0)))
(let ((.def_76 (* 10.0 .def_75)))
(let ((.def_358 (+ .def_76 .def_357)))
(let ((.def_101 (* 10.0 b.y__AT0)))
(let ((.def_359 (+ .def_101 .def_358)))
(let ((.def_360 (= .def_359 0.0 )))
(let ((.def_348 (* (- 5.0) b.speed_y__AT1)))
(let ((.def_120 (* (- 49.0) b.delta__AT0)))
(let ((.def_349 (+ .def_120 .def_348)))
(let ((.def_122 (* 5.0 b.speed_y__AT0)))
(let ((.def_350 (+ .def_122 .def_349)))
(let ((.def_351 (= .def_350 0.0 )))
(let ((.def_340 (* b.speed_x__AT0 b.delta__AT0)))
(let ((.def_344 (+ .def_341 .def_340)))
(let ((.def_345 (+ b.x__AT0 .def_344)))
(let ((.def_346 (= .def_345 0.0 )))
(let ((.def_229 (= b.speed_x__AT0 b.speed_x__AT1)))
(let ((.def_347 (and .def_229 .def_346)))
(let ((.def_352 (and .def_347 .def_351)))
(let ((.def_361 (and .def_352 .def_360)))
(let ((.def_362 (or .def_205 .def_361)))
(let ((.def_226 (= b.y__AT0 b.y__AT1)))
(let ((.def_223 (= b.x__AT0 b.x__AT1)))
(let ((.def_334 (and .def_223 .def_226)))
(let ((.def_335 (and .def_229 .def_334)))
(let ((.def_232 (= b.speed_y__AT0 b.speed_y__AT1)))
(let ((.def_336 (and .def_232 .def_335)))
(let ((.def_331 (= b.delta__AT0 0.0 )))
(let ((.def_332 (and .def_203 .def_331)))
(let ((.def_333 (not .def_332)))
(let ((.def_337 (or .def_333 .def_336)))
(let ((.def_338 (or b.EVENT.1__AT0 .def_337)))
(let ((.def_323 (and .def_229 .def_232)))
(let ((.def_324 (and .def_240 .def_323)))
(let ((.def_325 (or b.bool_atom__AT0 .def_324)))
(let ((.def_299 (or .def_6 b.counter.0__AT0)))
(let ((.def_37 (not b.counter.0__AT0)))
(let ((.def_298 (or b.counter.0__AT1 .def_37)))
(let ((.def_300 (and .def_298 .def_299)))
(let ((.def_301 (and .def_4 .def_300)))
(let ((.def_302 (or b.counter.1__AT0 .def_301)))
(let ((.def_35 (not b.counter.1__AT0)))
(let ((.def_297 (or b.counter.1__AT1 .def_35)))
(let ((.def_303 (and .def_297 .def_302)))
(let ((.def_314 (and .def_9 .def_303)))
(let ((.def_315 (or b.counter.2__AT0 .def_314)))
(let ((.def_309 (and .def_4 .def_37)))
(let ((.def_310 (or b.counter.1__AT0 .def_309)))
(let ((.def_311 (and .def_297 .def_310)))
(let ((.def_312 (and b.counter.2__AT1 .def_311)))
(let ((.def_40 (not b.counter.2__AT0)))
(let ((.def_313 (or .def_40 .def_312)))
(let ((.def_316 (and .def_313 .def_315)))
(let ((.def_317 (and b.counter.3__AT1 .def_316)))
(let ((.def_318 (or b.counter.3__AT0 .def_317)))
(let ((.def_304 (and b.counter.2__AT1 .def_303)))
(let ((.def_305 (or b.counter.2__AT0 .def_304)))
(let ((.def_293 (or b.counter.1__AT1 b.counter.1__AT0)))
(let ((.def_291 (and .def_4 b.counter.0__AT1)))
(let ((.def_292 (or .def_35 .def_291)))
(let ((.def_294 (and .def_292 .def_293)))
(let ((.def_295 (and .def_9 .def_294)))
(let ((.def_296 (or .def_40 .def_295)))
(let ((.def_306 (and .def_296 .def_305)))
(let ((.def_307 (and .def_12 .def_306)))
(let ((.def_43 (not b.counter.3__AT0)))
(let ((.def_308 (or .def_43 .def_307)))
(let ((.def_319 (and .def_308 .def_318)))
(let ((.def_282 (* b.speed_y__AT0 b.speed_y__AT0)))
(let ((.def_281 (* b.speed_x__AT0 b.speed_x__AT0)))
(let ((.def_283 (+ .def_281 .def_282)))
(let ((.def_263 (* (- 1.0) b.speed_loss__AT0)))
(let ((.def_264 (+ 1.0 .def_263)))
(let ((.def_280 (* .def_264 .def_264)))
(let ((.def_284 (* .def_280 .def_283)))
(let ((.def_286 (* (- 1.0) .def_284)))
(let ((.def_277 (* b.speed_y__AT1 b.speed_y__AT1)))
(let ((.def_287 (+ .def_277 .def_286)))
(let ((.def_275 (* b.speed_x__AT1 b.speed_x__AT1)))
(let ((.def_288 (+ .def_275 .def_287)))
(let ((.def_289 (= .def_288 0.0 )))
(let ((.def_268 (* b.speed_y__AT0 .def_264)))
(let ((.def_251 (* (- 2.0) b.x__AT0)))
(let ((.def_252 (* (- 1.0) .def_251)))
(let ((.def_265 (* .def_252 .def_264)))
(let ((.def_266 (* b.speed_x__AT0 .def_265)))
(let ((.def_271 (+ .def_266 .def_268)))
(let ((.def_260 (* (- 2.0) b.x__AT1)))
(let ((.def_261 (* (- 1.0) .def_260)))
(let ((.def_262 (* b.speed_x__AT1 .def_261)))
(let ((.def_272 (+ .def_262 .def_271)))
(let ((.def_273 (+ b.speed_y__AT1 .def_272)))
(let ((.def_274 (= .def_273 0.0 )))
(let ((.def_290 (and .def_274 .def_289)))
(let ((.def_320 (and .def_290 .def_319)))
(let ((.def_259 (not b.bool_atom__AT0)))
(let ((.def_321 (or .def_259 .def_320)))
(let ((.def_253 (* b.speed_x__AT0 .def_252)))
(let ((.def_254 (+ b.speed_y__AT0 .def_253)))
(let ((.def_255 (<= 0.0 .def_254)))
(let ((.def_256 (not .def_255)))
(let ((.def_60 (* (- 1.0) b.x__AT0)))
(let ((.def_61 (* b.x__AT0 .def_60)))
(let ((.def_249 (= b.y__AT0 .def_61)))
(let ((.def_257 (and .def_249 .def_256)))
(let ((.def_258 (= b.bool_atom__AT0 .def_257)))
(let ((.def_322 (and .def_258 .def_321)))
(let ((.def_326 (and .def_322 .def_325)))
(let ((.def_327 (and .def_223 .def_326)))
(let ((.def_328 (and .def_226 .def_327)))
(let ((.def_329 (or .def_203 .def_328)))
(let ((.def_330 (or b.EVENT.1__AT0 .def_329)))
(let ((.def_339 (and .def_330 .def_338)))
(let ((.def_363 (and .def_339 .def_362)))
(let ((.def_210 (= b.time__AT0 b.time__AT1)))
(let ((.def_224 (and .def_210 .def_223)))
(let ((.def_227 (and .def_224 .def_226)))
(let ((.def_230 (and .def_227 .def_229)))
(let ((.def_233 (and .def_230 .def_232)))
(let ((.def_241 (and .def_233 .def_240)))
(let ((.def_245 (and .def_241 .def_244)))
(let ((.def_246 (or .def_54 .def_245)))
(let ((.def_213 (* (- 1.0) b.time__AT1)))
(let ((.def_216 (+ b.delta__AT0 .def_213)))
(let ((.def_217 (+ b.time__AT0 .def_216)))
(let ((.def_218 (= .def_217 0.0 )))
(let ((.def_219 (or .def_205 .def_218)))
(let ((.def_220 (or b.EVENT.1__AT0 .def_219)))
(let ((.def_211 (or .def_203 .def_210)))
(let ((.def_212 (or b.EVENT.1__AT0 .def_211)))
(let ((.def_221 (and .def_212 .def_220)))
(let ((.def_247 (and .def_221 .def_246)))
(let ((.def_207 (= .def_205 b.event_is_timed__AT1)))
(let ((.def_204 (= b.event_is_timed__AT0 .def_203)))
(let ((.def_208 (and .def_204 .def_207)))
(let ((.def_248 (and .def_208 .def_247)))
(let ((.def_364 (and .def_248 .def_363)))
(let ((.def_368 (and .def_364 .def_367)))
(let ((.def_372 (and .def_368 .def_371)))
(let ((.def_373 (and .def_54 .def_372)))
(let ((.def_391 (and .def_373 .def_390)))
(let ((.def_38 (and .def_35 .def_37)))
(let ((.def_41 (and .def_38 .def_40)))
(let ((.def_44 (and .def_41 .def_43)))
(let ((.def_392 (and .def_44 .def_391)))
(let ((.def_78 (* (- 1.0) b.speed_x__AT0)))
(let ((.def_79 (* b.speed_x__AT0 .def_78)))
(let ((.def_80 (* (- 1.0) .def_79)))
(let ((.def_111 (* 2.0 .def_80)))
(let ((.def_173 (* (- 1.0) .def_111)))
(let ((.def_174 (* b.delta__AT0 .def_173)))
(let ((.def_175 (* (- 5.0) .def_174)))
(let ((.def_93 (* b.speed_x__AT0 .def_60)))
(let ((.def_118 (* (- 5.0) .def_93)))
(let ((.def_180 (+ .def_118 .def_175)))
(let ((.def_88 (* b.x__AT0 .def_78)))
(let ((.def_116 (* (- 5.0) .def_88)))
(let ((.def_181 (+ .def_116 .def_180)))
(let ((.def_182 (+ .def_120 .def_181)))
(let ((.def_183 (+ .def_122 .def_182)))
(let ((.def_186 (<= 0.0 .def_183)))
(let ((.def_193 (not .def_186)))
(let ((.def_94 (* (- 1.0) .def_93)))
(let ((.def_89 (* (- 1.0) .def_88)))
(let ((.def_130 (+ .def_89 .def_94)))
(let ((.def_131 (+ b.speed_y__AT0 .def_130)))
(let ((.def_132 (<= 0.0 .def_131)))
(let ((.def_194 (or .def_132 .def_193)))
(let ((.def_184 (<= .def_183 0.0 )))
(let ((.def_146 (<= .def_131 0.0 )))
(let ((.def_147 (not .def_146)))
(let ((.def_192 (or .def_147 .def_184)))
(let ((.def_195 (and .def_192 .def_194)))
(let ((.def_164 (<= .def_79 (- (/ 49 10)))))
(let ((.def_196 (or .def_164 .def_195)))
(let ((.def_188 (not .def_184)))
(let ((.def_189 (or .def_146 .def_188)))
(let ((.def_133 (not .def_132)))
(let ((.def_187 (or .def_133 .def_186)))
(let ((.def_190 (and .def_187 .def_189)))
(let ((.def_169 (<= (- (/ 49 10)) .def_79)))
(let ((.def_191 (or .def_169 .def_190)))
(let ((.def_197 (and .def_191 .def_196)))
(let ((.def_185 (and .def_146 .def_184)))
(let ((.def_198 (and .def_185 .def_197)))
(let ((.def_112 (* b.delta__AT0 .def_111)))
(let ((.def_114 (* 5.0 .def_112)))
(let ((.def_124 (+ .def_118 .def_114)))
(let ((.def_125 (+ .def_116 .def_124)))
(let ((.def_126 (+ .def_120 .def_125)))
(let ((.def_127 (+ .def_122 .def_126)))
(let ((.def_144 (<= .def_127 0.0 )))
(let ((.def_145 (not .def_144)))
(let ((.def_167 (or .def_145 .def_146)))
(let ((.def_128 (<= 0.0 .def_127)))
(let ((.def_166 (or .def_128 .def_133)))
(let ((.def_168 (and .def_166 .def_167)))
(let ((.def_170 (or .def_168 .def_169)))
(let ((.def_129 (not .def_128)))
(let ((.def_160 (or .def_129 .def_132)))
(let ((.def_159 (or .def_144 .def_147)))
(let ((.def_161 (and .def_159 .def_160)))
(let ((.def_165 (or .def_161 .def_164)))
(let ((.def_171 (and .def_165 .def_170)))
(let ((.def_158 (and .def_128 .def_132)))
(let ((.def_172 (and .def_158 .def_171)))
(let ((.def_199 (or .def_172 .def_198)))
(let ((.def_95 (* b.delta__AT0 .def_94)))
(let ((.def_96 (* 10.0 .def_95)))
(let ((.def_90 (* b.delta__AT0 .def_89)))
(let ((.def_91 (* 10.0 .def_90)))
(let ((.def_103 (+ .def_91 .def_96)))
(let ((.def_81 (* .def_77 .def_80)))
(let ((.def_82 (* 10.0 .def_81)))
(let ((.def_104 (+ .def_82 .def_103)))
(let ((.def_105 (+ .def_86 .def_104)))
(let ((.def_106 (+ .def_76 .def_105)))
(let ((.def_99 (* (- 10.0) .def_61)))
(let ((.def_107 (+ .def_99 .def_106)))
(let ((.def_108 (+ .def_101 .def_107)))
(let ((.def_138 (<= .def_108 0.0 )))
(let ((.def_152 (not .def_138)))
(let ((.def_136 (<= b.y__AT0 .def_61)))
(let ((.def_153 (or .def_136 .def_152)))
(let ((.def_62 (<= .def_61 b.y__AT0)))
(let ((.def_150 (not .def_62)))
(let ((.def_109 (<= 0.0 .def_108)))
(let ((.def_151 (or .def_109 .def_150)))
(let ((.def_154 (and .def_151 .def_153)))
(let ((.def_148 (or .def_145 .def_147)))
(let ((.def_149 (not .def_148)))
(let ((.def_155 (or .def_149 .def_154)))
(let ((.def_140 (not .def_109)))
(let ((.def_141 (or .def_62 .def_140)))
(let ((.def_137 (not .def_136)))
(let ((.def_139 (or .def_137 .def_138)))
(let ((.def_142 (and .def_139 .def_141)))
(let ((.def_134 (or .def_129 .def_133)))
(let ((.def_135 (not .def_134)))
(let ((.def_143 (or .def_135 .def_142)))
(let ((.def_156 (and .def_143 .def_155)))
(let ((.def_110 (and .def_62 .def_109)))
(let ((.def_157 (and .def_110 .def_156)))
(let ((.def_200 (and .def_157 .def_199)))
(let ((.def_201 (and .def_69 .def_200)))
(let ((.def_70 (and .def_62 .def_69)))
(let ((.def_57 (or .def_54 .def_56)))
(let ((.def_47 (or .def_35 .def_37)))
(let ((.def_51 (or b.counter.3__AT0 .def_47)))
(let ((.def_48 (or b.counter.2__AT0 .def_47)))
(let ((.def_46 (or .def_37 .def_40)))
(let ((.def_49 (and .def_46 .def_48)))
(let ((.def_50 (or .def_43 .def_49)))
(let ((.def_52 (and .def_50 .def_51)))
(let ((.def_58 (and .def_52 .def_57)))
(let ((.def_71 (and .def_58 .def_70)))
(let ((.def_32 (= b.speed_y__AT0 1.0 )))
(let ((.def_29 (= b.speed_x__AT0 1.0 )))
(let ((.def_25 (= b.y__AT0 10.0 )))
(let ((.def_21 (= b.x__AT0 0.0 )))
(let ((.def_17 (= b.time__AT0 0.0 )))
(let ((.def_19 (and .def_17 b.event_is_timed__AT0)))
(let ((.def_22 (and .def_19 .def_21)))
(let ((.def_26 (and .def_22 .def_25)))
(let ((.def_30 (and .def_26 .def_29)))
(let ((.def_33 (and .def_30 .def_32)))
(let ((.def_45 (and .def_33 .def_44)))
(let ((.def_72 (and .def_45 .def_71)))
(let ((.def_7 (and .def_4 .def_6)))
(let ((.def_10 (and .def_7 .def_9)))
(let ((.def_13 (and .def_10 .def_12)))
(let ((.def_14 (not .def_13)))
(let ((.def_73 (and .def_14 .def_72)))
(let ((.def_202 (and .def_73 .def_201)))
(let ((.def_393 (and .def_202 .def_392)))
(let ((.def_515 (and .def_393 .def_514)))
.def_515))))))))))))))))))))))))))))))))))))))))))))))))))))))))))))))))))))))))))))))))))))))))))))))))))))))))))))))))))))))))))))))))))))))))))))))))))))))))))))))))))))))))))))))))))))))))))))))))))))))))))))))))))))))))))))))))))))))))))))))))))))))))))))))))))))))))))))))))))))))))))))))))))))))))))))))))))))))))))))))))))))))))))))))))))))))))))))))))))))))))))))))))))))))))))))))))))))))))))))))))))))))))))))))))))))))))))))
(check-sat)
(exit)
